(set-info :status sat) ; swine result
(set-logic ALL)
(declare-fun i1 () Int)
(declare-fun it184 () Int)
(declare-fun it185 () Int)
(declare-fun i2 () Int)
(declare-fun i3 () Int)
(declare-fun it186 () Int)
(declare-fun it187 () Int)
(declare-fun i4 () Int)
(declare-fun it188 () Int)
(declare-fun i5 () Int)
(declare-fun i6 () Int)
(declare-fun it189 () Int)
(declare-fun i7 () Int)
(declare-fun it190 () Int)
(declare-fun it191 () Int)
(declare-fun it192 () Int)
(declare-fun it193 () Int)
(declare-fun it194 () Int)
(declare-fun it195 () Int)
(declare-fun it196 () Int)
(declare-fun it197 () Int)
(declare-fun it198 () Int)
(declare-fun it199 () Int)
(declare-fun it200 () Int)
(declare-fun it201 () Int)
(declare-fun it202 () Int)
(declare-fun it203 () Int)
(declare-fun it204 () Int)
(declare-fun it101 () Int)
(assert (= (+ i1 (- 1)) 0))
(assert (= (+ it184 (- 5)) 0))
(assert (= (+ (* i2 (- 1)) it185 (- 4)) 0))
(assert (= (+ it186 (* i3 (- 1))) 0))
(assert (= (+ (* i4 (- 1)) it187) 0))
(assert (= (+ (* i5 (- 1)) it188) 0))
(assert (= (+ it189 (* i6 (- 1))) 0))
(assert (= (+ it190 (* i7 (- 1))) 0))
(assert (and (= (+ it184 (- 5)) 0) (> (+ it187 (- 2)) 0)))
(assert (= (+ it191 (- 18)) 0))
(assert (= (+ it192 (* it185 (- 1)) (- 12)) 0))
(assert (= (+ (* it186 (- 1)) it193) 0))
(assert (= (+ (* it187 (- 1)) it194) 0))
(assert (= (+ it195 (* it188 (- 1))) 0))
(assert (= it196 0))
(assert (= (+ (* it190 (- 1)) it197) 0))
(assert (and (= (+ it191 (- 18)) 0) (<= (+ it196 (* it194 (- 1)) 2) 0)))
(assert (= (+ it198 (- 20)) 0))
(assert (= (+ (* it192 (- 1)) it199 (- 2)) 0))
(assert (= (+ (* it193 (- 1)) it200) 0))
(assert (= (+ it201 (* it194 (- 1))) 0))
(assert (= it202 0))
(assert (= (+ (* it196 (- 1)) it203) 0))
(assert (= (+ (* it197 (- 1)) it204) 0))
(assert (let ((a!1 (* (* (exp 2 (+ it101 (- 1))) (+ 0 it202)) (+ 0 (- 2))))
      (a!3 (* (* (exp 2 (+ it101 (- 1))) (+ 0 it202)) (+ 0 2))))
(let ((a!2 (+ a!1
              (+ 0 it201)
              (* (exp 2 (+ it101 (- 1))) (+ 0 (- 2)))
              (+ 0 (* it203 (- 1)))
              (+ 0 (- 1))))
      (a!4 (+ a!3
              (+ 0 (* it201 (- 1)))
              (* (exp 2 (+ it101 (- 1))) (+ 0 2))
              (+ 0 it203)
              (+ 0 1))))
  (and (>= (+ it201 (* it202 (- 2)) (* it203 (- 1)) (- 3)) 0)
       (>= (+ it198 (- 20)) 0)
       (>= (+ (* it198 (- 1)) 20) 0)
       (>= (+ (* it201 (- 1)) (* it202 2) it203 3) 0)
       (>= a!2 (+ 0 0))
       (>= a!4 (+ 0 0))
       (>= (+ it101 (- 1)) 0)))))
(check-sat)
